c description: Graph 4-Colorability of graph: 
c generator: CNFgen (0.9.0)
c copyright: (C) 2012-2020 Massimo Lauria <massimo.lauria@uniroma1.it>
c url: https://massimolauria.net/cnfgen
c
p cnf 120 450
1 2 3 4 0
-1 -2 0
-1 -3 0
-1 -4 0
-2 -3 0
-2 -4 0
-3 -4 0
5 6 7 8 0
-5 -6 0
-5 -7 0
-5 -8 0
-6 -7 0
-6 -8 0
-7 -8 0
9 10 11 12 0
-9 -10 0
-9 -11 0
-9 -12 0
-10 -11 0
-10 -12 0
-11 -12 0
13 14 15 16 0
-13 -14 0
-13 -15 0
-13 -16 0
-14 -15 0
-14 -16 0
-15 -16 0
17 18 19 20 0
-17 -18 0
-17 -19 0
-17 -20 0
-18 -19 0
-18 -20 0
-19 -20 0
21 22 23 24 0
-21 -22 0
-21 -23 0
-21 -24 0
-22 -23 0
-22 -24 0
-23 -24 0
25 26 27 28 0
-25 -26 0
-25 -27 0
-25 -28 0
-26 -27 0
-26 -28 0
-27 -28 0
29 30 31 32 0
-29 -30 0
-29 -31 0
-29 -32 0
-30 -31 0
-30 -32 0
-31 -32 0
33 34 35 36 0
-33 -34 0
-33 -35 0
-33 -36 0
-34 -35 0
-34 -36 0
-35 -36 0
37 38 39 40 0
-37 -38 0
-37 -39 0
-37 -40 0
-38 -39 0
-38 -40 0
-39 -40 0
41 42 43 44 0
-41 -42 0
-41 -43 0
-41 -44 0
-42 -43 0
-42 -44 0
-43 -44 0
45 46 47 48 0
-45 -46 0
-45 -47 0
-45 -48 0
-46 -47 0
-46 -48 0
-47 -48 0
49 50 51 52 0
-49 -50 0
-49 -51 0
-49 -52 0
-50 -51 0
-50 -52 0
-51 -52 0
53 54 55 56 0
-53 -54 0
-53 -55 0
-53 -56 0
-54 -55 0
-54 -56 0
-55 -56 0
57 58 59 60 0
-57 -58 0
-57 -59 0
-57 -60 0
-58 -59 0
-58 -60 0
-59 -60 0
61 62 63 64 0
-61 -62 0
-61 -63 0
-61 -64 0
-62 -63 0
-62 -64 0
-63 -64 0
65 66 67 68 0
-65 -66 0
-65 -67 0
-65 -68 0
-66 -67 0
-66 -68 0
-67 -68 0
69 70 71 72 0
-69 -70 0
-69 -71 0
-69 -72 0
-70 -71 0
-70 -72 0
-71 -72 0
73 74 75 76 0
-73 -74 0
-73 -75 0
-73 -76 0
-74 -75 0
-74 -76 0
-75 -76 0
77 78 79 80 0
-77 -78 0
-77 -79 0
-77 -80 0
-78 -79 0
-78 -80 0
-79 -80 0
81 82 83 84 0
-81 -82 0
-81 -83 0
-81 -84 0
-82 -83 0
-82 -84 0
-83 -84 0
85 86 87 88 0
-85 -86 0
-85 -87 0
-85 -88 0
-86 -87 0
-86 -88 0
-87 -88 0
89 90 91 92 0
-89 -90 0
-89 -91 0
-89 -92 0
-90 -91 0
-90 -92 0
-91 -92 0
93 94 95 96 0
-93 -94 0
-93 -95 0
-93 -96 0
-94 -95 0
-94 -96 0
-95 -96 0
97 98 99 100 0
-97 -98 0
-97 -99 0
-97 -100 0
-98 -99 0
-98 -100 0
-99 -100 0
101 102 103 104 0
-101 -102 0
-101 -103 0
-101 -104 0
-102 -103 0
-102 -104 0
-103 -104 0
105 106 107 108 0
-105 -106 0
-105 -107 0
-105 -108 0
-106 -107 0
-106 -108 0
-107 -108 0
109 110 111 112 0
-109 -110 0
-109 -111 0
-109 -112 0
-110 -111 0
-110 -112 0
-111 -112 0
113 114 115 116 0
-113 -114 0
-113 -115 0
-113 -116 0
-114 -115 0
-114 -116 0
-115 -116 0
117 118 119 120 0
-117 -118 0
-117 -119 0
-117 -120 0
-118 -119 0
-118 -120 0
-119 -120 0
-1 -81 0
-2 -82 0
-3 -83 0
-4 -84 0
-5 -9 0
-6 -10 0
-7 -11 0
-8 -12 0
-5 -13 0
-6 -14 0
-7 -15 0
-8 -16 0
-5 -21 0
-6 -22 0
-7 -23 0
-8 -24 0
-5 -69 0
-6 -70 0
-7 -71 0
-8 -72 0
-9 -29 0
-10 -30 0
-11 -31 0
-12 -32 0
-9 -85 0
-10 -86 0
-11 -87 0
-12 -88 0
-9 -93 0
-10 -94 0
-11 -95 0
-12 -96 0
-17 -33 0
-18 -34 0
-19 -35 0
-20 -36 0
-17 -61 0
-18 -62 0
-19 -63 0
-20 -64 0
-17 -65 0
-18 -66 0
-19 -67 0
-20 -68 0
-17 -93 0
-18 -94 0
-19 -95 0
-20 -96 0
-17 -97 0
-18 -98 0
-19 -99 0
-20 -100 0
-17 -109 0
-18 -110 0
-19 -111 0
-20 -112 0
-17 -117 0
-18 -118 0
-19 -119 0
-20 -120 0
-21 -25 0
-22 -26 0
-23 -27 0
-24 -28 0
-21 -57 0
-22 -58 0
-23 -59 0
-24 -60 0
-25 -29 0
-26 -30 0
-27 -31 0
-28 -32 0
-25 -93 0
-26 -94 0
-27 -95 0
-28 -96 0
-33 -57 0
-34 -58 0
-35 -59 0
-36 -60 0
-37 -49 0
-38 -50 0
-39 -51 0
-40 -52 0
-37 -53 0
-38 -54 0
-39 -55 0
-40 -56 0
-37 -117 0
-38 -118 0
-39 -119 0
-40 -120 0
-41 -61 0
-42 -62 0
-43 -63 0
-44 -64 0
-41 -69 0
-42 -70 0
-43 -71 0
-44 -72 0
-41 -81 0
-42 -82 0
-43 -83 0
-44 -84 0
-45 -53 0
-46 -54 0
-47 -55 0
-48 -56 0
-45 -69 0
-46 -70 0
-47 -71 0
-48 -72 0
-45 -85 0
-46 -86 0
-47 -87 0
-48 -88 0
-45 -93 0
-46 -94 0
-47 -95 0
-48 -96 0
-45 -105 0
-46 -106 0
-47 -107 0
-48 -108 0
-45 -113 0
-46 -114 0
-47 -115 0
-48 -116 0
-45 -117 0
-46 -118 0
-47 -119 0
-48 -120 0
-49 -57 0
-50 -58 0
-51 -59 0
-52 -60 0
-49 -69 0
-50 -70 0
-51 -71 0
-52 -72 0
-49 -89 0
-50 -90 0
-51 -91 0
-52 -92 0
-49 -109 0
-50 -110 0
-51 -111 0
-52 -112 0
-53 -93 0
-54 -94 0
-55 -95 0
-56 -96 0
-53 -117 0
-54 -118 0
-55 -119 0
-56 -120 0
-57 -73 0
-58 -74 0
-59 -75 0
-60 -76 0
-57 -81 0
-58 -82 0
-59 -83 0
-60 -84 0
-57 -113 0
-58 -114 0
-59 -115 0
-60 -116 0
-57 -117 0
-58 -118 0
-59 -119 0
-60 -120 0
-61 -73 0
-62 -74 0
-63 -75 0
-64 -76 0
-61 -117 0
-62 -118 0
-63 -119 0
-64 -120 0
-65 -77 0
-66 -78 0
-67 -79 0
-68 -80 0
-65 -81 0
-66 -82 0
-67 -83 0
-68 -84 0
-65 -93 0
-66 -94 0
-67 -95 0
-68 -96 0
-65 -101 0
-66 -102 0
-67 -103 0
-68 -104 0
-69 -101 0
-70 -102 0
-71 -103 0
-72 -104 0
-73 -97 0
-74 -98 0
-75 -99 0
-76 -100 0
-77 -89 0
-78 -90 0
-79 -91 0
-80 -92 0
-77 -117 0
-78 -118 0
-79 -119 0
-80 -120 0
-81 -101 0
-82 -102 0
-83 -103 0
-84 -104 0
-81 -113 0
-82 -114 0
-83 -115 0
-84 -116 0
-85 -89 0
-86 -90 0
-87 -91 0
-88 -92 0
-85 -97 0
-86 -98 0
-87 -99 0
-88 -100 0
-93 -109 0
-94 -110 0
-95 -111 0
-96 -112 0
-93 -117 0
-94 -118 0
-95 -119 0
-96 -120 0
-105 -113 0
-106 -114 0
-107 -115 0
-108 -116 0